proyfinal/src/viki/013/experimentInOfficeAgust.take6.output/9d4cfedb-5046-45b4-9bb5-f73b365d9ef3.als.out
Reading from standard input... Use '--help' for help.
============================[ Problem Statistics ]=============================
|                                                                             |
|  Number of variables:         87638                                         |
|  Number of clauses:          161767                                         |
|  Parse time:                   0.04 s                                       |
|                                                                             |
============================[ Search Statistics ]==============================
| Conflicts |          ORIGINAL         |          LEARNT          | Progress |
|           |    Vars  Clauses Literals |    Limit  Clauses Lit/Cl |          |
===============================================================================
|       100 |   62052   103958   259805 |    38117      100      9 | 29.195 % |
|       250 |   62052   103958   259805 |    41929      250     41 | 29.195 % |
|       475 |   62052   103958   259805 |    46122      475     51 | 29.195 % |
|       812 |   62044   103926   259717 |    50734      762     56 | 29.204 % |
|      1318 |   62006   103774   259360 |    55808     1266    103 | 29.248 % |
|      2077 |   62006   103774   259360 |    61389     2025    101 | 29.248 % |
|      3216 |   61956   103495   258733 |    67528     2321     91 | 29.305 % |
|      4924 |   61956   103495   258733 |    74281     4029     92 | 29.305 % |
|      7486 |   61933   103401   258511 |    81709     6589    101 | 29.331 % |
===============================================================================
restarts              : 35
conflicts             : 8447           (6661 /sec)
decisions             : 30010          (0.00 % random) (23663 /sec)
propagations          : 13423425       (10584519 /sec)
conflict literals     : 829933         (49.99 % deleted)
Memory used           : 26.36 MB
CPU time              : 1.26821 s

UNSATISFIABLE
